(set-logic QF_UF)
(declare-fun A0 () Bool)
(declare-fun A1 () Bool)
(declare-fun A2 () Bool)
(declare-fun A3 () Bool)
(declare-fun A4 () Bool)
(declare-fun A5 () Bool)
(declare-fun A6 () Bool)
(declare-fun A7 () Bool)
(declare-fun A8 () Bool)
(declare-fun A9 () Bool)
(declare-fun A10 () Bool)
(declare-fun A11 () Bool)
(declare-fun A12 () Bool)
(declare-fun A13 () Bool)
(declare-fun A14 () Bool)
(declare-fun A15 () Bool)
(declare-fun A16 () Bool)
(declare-fun A17 () Bool)
(declare-fun A18 () Bool)
(declare-fun A19 () Bool)
(declare-fun A20 () Bool)
(declare-fun A21 () Bool)
(declare-fun A22 () Bool)
(declare-fun A23 () Bool)
(declare-fun A24 () Bool)
(assert (let ((.def_0 (= A10 A20))) (let ((.def_1 (or A11 A12))) (let ((.def_2 (not .def_1))) (let ((.def_3 (= .def_2 .def_0))) (let ((.def_4 (not A10))) (let ((.def_5 (not A2))) (let ((.def_6 (and .def_5 .def_4))) (let ((.def_7 (not .def_6))) (let ((.def_8 (not A13))) (let ((.def_9 (and A8 .def_8))) (let ((.def_10 (or .def_9 .def_7))) (let ((.def_11 (not .def_10))) (let ((.def_12 (and .def_11 .def_3))) (let ((.def_13 (not .def_12))) (let ((.def_14 (not A22))) (let ((.def_15 (or A9 .def_14))) (let ((.def_16 (or .def_5 A4))) (let ((.def_17 (or .def_16 .def_15))) (let ((.def_18 (not A19))) (let ((.def_19 (not A24))) (let ((.def_20 (or .def_19 .def_18))) (let ((.def_21 (and A7 .def_18))) (let ((.def_22 (not .def_21))) (let ((.def_23 (and .def_22 .def_20))) (let ((.def_24 (or .def_23 .def_17))) (let ((.def_25 (not .def_24))) (let ((.def_26 (= .def_25 .def_13))) (let ((.def_27 (not .def_26))) (let ((.def_28 (not A12))) (let ((.def_29 (and A7 .def_28))) (let ((.def_30 (or .def_14 A13))) (let ((.def_31 (not .def_30))) (let ((.def_32 (or .def_31 .def_29))) (let ((.def_33 (not .def_32))) (let ((.def_34 (not A14))) (let ((.def_35 (and .def_34 A6))) (let ((.def_36 (not .def_35))) (let ((.def_37 (not A0))) (let ((.def_38 (or A15 .def_37))) (let ((.def_39 (not .def_38))) (let ((.def_40 (and .def_39 .def_36))) (let ((.def_41 (not .def_40))) (let ((.def_42 (and .def_41 .def_33))) (let ((.def_43 (not .def_42))) (let ((.def_44 (not A18))) (let ((.def_45 (not A21))) (let ((.def_46 (or .def_45 .def_44))) (let ((.def_47 (not .def_46))) (let ((.def_48 (not A9))) (let ((.def_49 (and .def_18 .def_48))) (let ((.def_50 (not .def_49))) (let ((.def_51 (and .def_50 .def_47))) (let ((.def_52 (not .def_51))) (let ((.def_53 (and A11 .def_18))) (let ((.def_54 (not .def_53))) (let ((.def_55 (and A12 .def_5))) (let ((.def_56 (not .def_55))) (let ((.def_57 (and .def_56 .def_54))) (let ((.def_58 (not .def_57))) (let ((.def_59 (or .def_58 .def_52))) (let ((.def_60 (or .def_59 .def_43))) (let ((.def_61 (and .def_60 .def_27))) (let ((.def_62 (not A5))) (let ((.def_63 (or A21 .def_62))) (let ((.def_64 (not .def_63))) (let ((.def_65 (or A16 .def_4))) (let ((.def_66 (and .def_65 .def_64))) (let ((.def_67 (not .def_66))) (let ((.def_68 (or A10 .def_14))) (let ((.def_69 (or A14 .def_45))) (let ((.def_70 (not .def_69))) (let ((.def_71 (and .def_70 .def_68))) (let ((.def_72 (not .def_71))) (let ((.def_73 (= .def_72 .def_67))) (let ((.def_74 (not A17))) (let ((.def_75 (or .def_74 .def_62))) (let ((.def_76 (not .def_75))) (let ((.def_77 (or A23 A23))) (let ((.def_78 (not .def_77))) (let ((.def_79 (= .def_78 .def_76))) (let ((.def_80 (not .def_79))) (let ((.def_81 (not A20))) (let ((.def_82 (and A22 .def_81))) (let ((.def_83 (not .def_82))) (let ((.def_84 (or A22 A2))) (let ((.def_85 (and .def_84 .def_83))) (let ((.def_86 (and .def_85 .def_80))) (let ((.def_87 (or .def_86 .def_73))) (let ((.def_88 (not .def_87))) (let ((.def_89 (not A15))) (let ((.def_90 (and .def_89 A10))) (let ((.def_91 (not .def_90))) (let ((.def_92 (not A23))) (let ((.def_93 (= A11 .def_92))) (let ((.def_94 (or .def_93 .def_91))) (let ((.def_95 (not A16))) (let ((.def_96 (or .def_48 .def_95))) (let ((.def_97 (not .def_96))) (let ((.def_98 (= A9 .def_92))) (let ((.def_99 (not .def_98))) (let ((.def_100 (and .def_99 .def_97))) (let ((.def_101 (and .def_100 .def_94))) (let ((.def_102 (= A22 .def_14))) (let ((.def_103 (not .def_102))) (let ((.def_104 (or A15 A15))) (let ((.def_105 (not .def_104))) (let ((.def_106 (or .def_105 .def_103))) (let ((.def_107 (not .def_106))) (let ((.def_108 (not A11))) (let ((.def_109 (or .def_108 .def_48))) (let ((.def_110 (not A7))) (let ((.def_111 (and .def_110 .def_37))) (let ((.def_112 (and .def_111 .def_109))) (let ((.def_113 (and .def_112 .def_107))) (let ((.def_114 (not .def_113))) (let ((.def_115 (and .def_114 .def_101))) (let ((.def_116 (or .def_115 .def_88))) (let ((.def_117 (and .def_116 .def_61))) (let ((.def_118 (or A6 A6))) (let ((.def_119 (or A14 A3))) (let ((.def_120 (and .def_119 .def_118))) (let ((.def_121 (and .def_95 .def_14))) (let ((.def_122 (not .def_121))) (let ((.def_123 (and .def_8 .def_45))) (let ((.def_124 (and .def_123 .def_122))) (let ((.def_125 (or .def_124 .def_120))) (let ((.def_126 (and A19 A4))) (let ((.def_127 (or .def_45 .def_74))) (let ((.def_128 (or .def_127 .def_126))) (let ((.def_129 (not .def_128))) (let ((.def_130 (or .def_110 .def_4))) (let ((.def_131 (not .def_130))) (let ((.def_132 (or .def_8 A0))) (let ((.def_133 (and .def_132 .def_131))) (let ((.def_134 (and .def_133 .def_129))) (let ((.def_135 (not .def_134))) (let ((.def_136 (or .def_135 .def_125))) (let ((.def_137 (not .def_136))) (let ((.def_138 (or A22 A0))) (let ((.def_139 (not .def_138))) (let ((.def_140 (or .def_108 .def_110))) (let ((.def_141 (or .def_140 .def_139))) (let ((.def_142 (not A4))) (let ((.def_143 (or .def_142 .def_44))) (let ((.def_144 (not .def_143))) (let ((.def_145 (not A8))) (let ((.def_146 (and .def_5 .def_145))) (let ((.def_147 (not .def_146))) (let ((.def_148 (and .def_147 .def_144))) (let ((.def_149 (not .def_148))) (let ((.def_150 (and .def_149 .def_141))) (let ((.def_151 (not .def_150))) (let ((.def_152 (and .def_74 .def_74))) (let ((.def_153 (not .def_152))) (let ((.def_154 (and .def_142 .def_92))) (let ((.def_155 (not .def_154))) (let ((.def_156 (or .def_155 .def_153))) (let ((.def_157 (not .def_156))) (let ((.def_158 (and A21 A18))) (let ((.def_159 (not .def_158))) (let ((.def_160 (and .def_28 A10))) (let ((.def_161 (not .def_160))) (let ((.def_162 (or .def_161 .def_159))) (let ((.def_163 (not .def_162))) (let ((.def_164 (and .def_163 .def_157))) (let ((.def_165 (or .def_164 .def_151))) (let ((.def_166 (and .def_165 .def_137))) (let ((.def_167 (or .def_62 .def_37))) (let ((.def_168 (or .def_92 .def_34))) (let ((.def_169 (or .def_168 .def_167))) (let ((.def_170 (not .def_169))) (let ((.def_171 (or .def_44 .def_142))) (let ((.def_172 (not .def_171))) (let ((.def_173 (or A9 .def_74))) (let ((.def_174 (not .def_173))) (let ((.def_175 (or .def_174 .def_172))) (let ((.def_176 (not .def_175))) (let ((.def_177 (or .def_176 .def_170))) (let ((.def_178 (and .def_74 .def_89))) (let ((.def_179 (not .def_178))) (let ((.def_180 (not A3))) (let ((.def_181 (or A14 .def_180))) (let ((.def_182 (not .def_181))) (let ((.def_183 (and .def_182 .def_179))) (let ((.def_184 (and A20 .def_8))) (let ((.def_185 (not .def_184))) (let ((.def_186 (or A0 A15))) (let ((.def_187 (and .def_186 .def_185))) (let ((.def_188 (not .def_187))) (let ((.def_189 (and .def_188 .def_183))) (let ((.def_190 (not .def_189))) (let ((.def_191 (or .def_190 .def_177))) (let ((.def_192 (not .def_191))) (let ((.def_193 (or .def_145 A18))) (let ((.def_194 (not .def_193))) (let ((.def_195 (or A18 A16))) (let ((.def_196 (not .def_195))) (let ((.def_197 (or .def_196 .def_194))) (let ((.def_198 (not A1))) (let ((.def_199 (and .def_89 .def_198))) (let ((.def_200 (and A24 A3))) (let ((.def_201 (not .def_200))) (let ((.def_202 (or .def_201 .def_199))) (let ((.def_203 (= .def_202 .def_197))) (let ((.def_204 (not .def_203))) (let ((.def_205 (or .def_110 .def_45))) (let ((.def_206 (or .def_5 .def_44))) (let ((.def_207 (or .def_206 .def_205))) (let ((.def_208 (and A0 A22))) (let ((.def_209 (or A12 A12))) (let ((.def_210 (or .def_209 .def_208))) (let ((.def_211 (or .def_210 .def_207))) (let ((.def_212 (not .def_211))) (let ((.def_213 (or .def_212 .def_204))) (let ((.def_214 (and .def_213 .def_192))) (let ((.def_215 (not .def_214))) (let ((.def_216 (and .def_215 .def_166))) (let ((.def_217 (not .def_216))) (let ((.def_218 (and .def_217 .def_117))) (let ((.def_219 (not .def_218))) (let ((.def_220 (and A1 A2))) (let ((.def_221 (and .def_5 A20))) (let ((.def_222 (not .def_221))) (let ((.def_223 (or .def_222 .def_220))) (let ((.def_224 (not .def_223))) (let ((.def_225 (and .def_95 A18))) (let ((.def_226 (not .def_225))) (let ((.def_227 (or A10 A24))) (let ((.def_228 (or .def_227 .def_226))) (let ((.def_229 (not .def_228))) (let ((.def_230 (and .def_229 .def_224))) (let ((.def_231 (or A2 A4))) (let ((.def_232 (not .def_231))) (let ((.def_233 (= .def_180 A23))) (let ((.def_234 (or .def_233 .def_232))) (let ((.def_235 (not .def_234))) (let ((.def_236 (or .def_74 .def_34))) (let ((.def_237 (or A15 A3))) (let ((.def_238 (or .def_237 .def_236))) (let ((.def_239 (not .def_238))) (let ((.def_240 (or .def_239 .def_235))) (let ((.def_241 (not .def_240))) (let ((.def_242 (or .def_241 .def_230))) (let ((.def_243 (= A7 .def_198))) (let ((.def_244 (or .def_8 .def_48))) (let ((.def_245 (not .def_244))) (let ((.def_246 (and .def_245 .def_243))) (let ((.def_247 (not .def_246))) (let ((.def_248 (and .def_198 A23))) (let ((.def_249 (and .def_8 .def_44))) (let ((.def_250 (or .def_249 .def_248))) (let ((.def_251 (or .def_250 .def_247))) (let ((.def_252 (not .def_251))) (let ((.def_253 (and .def_74 A22))) (let ((.def_254 (not .def_253))) (let ((.def_255 (or .def_145 .def_48))) (let ((.def_256 (and .def_255 .def_254))) (let ((.def_257 (not .def_256))) (let ((.def_258 (not A6))) (let ((.def_259 (and A16 .def_258))) (let ((.def_260 (not .def_259))) (let ((.def_261 (= A15 .def_142))) (let ((.def_262 (= .def_261 .def_260))) (let ((.def_263 (not .def_262))) (let ((.def_264 (and .def_263 .def_257))) (let ((.def_265 (not .def_264))) (let ((.def_266 (or .def_265 .def_252))) (let ((.def_267 (not .def_266))) (let ((.def_268 (and .def_267 .def_242))) (let ((.def_269 (not .def_268))) (let ((.def_270 (and A5 .def_108))) (let ((.def_271 (not .def_270))) (let ((.def_272 (or .def_74 A17))) (let ((.def_273 (not .def_272))) (let ((.def_274 (= .def_273 .def_271))) (let ((.def_275 (= .def_180 A4))) (let ((.def_276 (not .def_275))) (let ((.def_277 (and .def_8 A5))) (let ((.def_278 (or .def_277 .def_276))) (let ((.def_279 (not .def_278))) (let ((.def_280 (or .def_279 .def_274))) (let ((.def_281 (= A22 A4))) (let ((.def_282 (or .def_44 .def_89))) (let ((.def_283 (and .def_282 .def_281))) (let ((.def_284 (or .def_81 A22))) (let ((.def_285 (not .def_111))) (let ((.def_286 (or .def_285 .def_284))) (let ((.def_287 (or .def_286 .def_283))) (let ((.def_288 (not .def_287))) (let ((.def_289 (and .def_288 .def_280))) (let ((.def_290 (or A11 A23))) (let ((.def_291 (not .def_290))) (let ((.def_292 (and A16 .def_4))) (let ((.def_293 (not .def_292))) (let ((.def_294 (and .def_293 .def_291))) (let ((.def_295 (not .def_294))) (let ((.def_296 (and .def_28 .def_198))) (let ((.def_297 (and .def_34 .def_92))) (let ((.def_298 (and .def_297 .def_296))) (let ((.def_299 (or .def_298 .def_295))) (let ((.def_300 (not .def_299))) (let ((.def_301 (and A9 A3))) (let ((.def_302 (not .def_301))) (let ((.def_303 (and .def_74 A10))) (let ((.def_304 (not .def_303))) (let ((.def_305 (or .def_304 .def_302))) (let ((.def_306 (= A6 .def_180))) (let ((.def_307 (or A0 A5))) (let ((.def_308 (and .def_307 .def_306))) (let ((.def_309 (not .def_308))) (let ((.def_310 (or .def_309 .def_305))) (let ((.def_311 (not .def_310))) (let ((.def_312 (and .def_311 .def_300))) (let ((.def_313 (and .def_312 .def_289))) (let ((.def_314 (not .def_313))) (let ((.def_315 (= .def_314 .def_269))) (let ((.def_316 (not .def_315))) (let ((.def_317 (or .def_5 .def_145))) (let ((.def_318 (not .def_317))) (let ((.def_319 (and .def_92 A13))) (let ((.def_320 (not .def_319))) (let ((.def_321 (and .def_320 .def_318))) (let ((.def_322 (not .def_321))) (let ((.def_323 (or A10 A9))) (let ((.def_324 (and A2 .def_5))) (let ((.def_325 (or .def_324 .def_323))) (let ((.def_326 (= .def_325 .def_322))) (let ((.def_327 (and .def_14 .def_145))) (let ((.def_328 (not .def_327))) (let ((.def_329 (and .def_4 .def_110))) (let ((.def_330 (not .def_329))) (let ((.def_331 (or .def_330 .def_328))) (let ((.def_332 (not .def_331))) (let ((.def_333 (or A22 .def_198))) (let ((.def_334 (and .def_145 .def_180))) (let ((.def_335 (not .def_334))) (let ((.def_336 (= .def_335 .def_333))) (let ((.def_337 (and .def_336 .def_332))) (let ((.def_338 (not .def_337))) (let ((.def_339 (and .def_338 .def_326))) (let ((.def_340 (not .def_339))) (let ((.def_341 (and A9 .def_145))) (let ((.def_342 (not .def_341))) (let ((.def_343 (and .def_108 A3))) (let ((.def_344 (not .def_343))) (let ((.def_345 (and .def_344 .def_342))) (let ((.def_346 (not .def_345))) (let ((.def_347 (and .def_62 .def_95))) (let ((.def_348 (not .def_347))) (let ((.def_349 (or A21 .def_180))) (let ((.def_350 (not .def_349))) (let ((.def_351 (or .def_350 .def_348))) (let ((.def_352 (and .def_351 .def_346))) (let ((.def_353 (and A6 .def_18))) (let ((.def_354 (not .def_353))) (let ((.def_355 (or A0 .def_92))) (let ((.def_356 (and .def_355 .def_354))) (let ((.def_357 (not .def_356))) (let ((.def_358 (and A24 .def_108))) (let ((.def_359 (and A10 .def_45))) (let ((.def_360 (and .def_359 .def_358))) (let ((.def_361 (not .def_360))) (let ((.def_362 (or .def_361 .def_357))) (let ((.def_363 (or .def_362 .def_352))) (let ((.def_364 (or .def_363 .def_340))) (let ((.def_365 (not .def_364))) (let ((.def_366 (or A4 A15))) (let ((.def_367 (not .def_366))) (let ((.def_368 (or A23 .def_48))) (let ((.def_369 (= .def_368 .def_367))) (let ((.def_370 (or A3 A12))) (let ((.def_371 (not .def_370))) (let ((.def_372 (and .def_92 A7))) (let ((.def_373 (not .def_372))) (let ((.def_374 (= .def_373 .def_371))) (let ((.def_375 (and .def_374 .def_369))) (let ((.def_376 (not .def_375))) (let ((.def_377 (or .def_74 .def_92))) (let ((.def_378 (not .def_377))) (let ((.def_379 (and A10 .def_110))) (let ((.def_380 (not .def_379))) (let ((.def_381 (= .def_380 .def_378))) (let ((.def_382 (and .def_62 .def_108))) (let ((.def_383 (not .def_382))) (let ((.def_384 (and .def_28 .def_81))) (let ((.def_385 (and .def_384 .def_383))) (let ((.def_386 (and .def_385 .def_381))) (let ((.def_387 (and .def_386 .def_376))) (let ((.def_388 (and .def_95 .def_5))) (let ((.def_389 (not .def_388))) (let ((.def_390 (= .def_4 A2))) (let ((.def_391 (= .def_390 .def_389))) (let ((.def_392 (and .def_89 .def_95))) (let ((.def_393 (or .def_8 A15))) (let ((.def_394 (not .def_393))) (let ((.def_395 (and .def_394 .def_392))) (let ((.def_396 (and .def_395 .def_391))) (let ((.def_397 (not .def_396))) (let ((.def_398 (and A19 .def_14))) (let ((.def_399 (not .def_398))) (let ((.def_400 (and .def_258 .def_8))) (let ((.def_401 (and .def_400 .def_399))) (let ((.def_402 (or .def_74 .def_258))) (let ((.def_403 (or A2 .def_8))) (let ((.def_404 (not .def_403))) (let ((.def_405 (or .def_404 .def_402))) (let ((.def_406 (and .def_405 .def_401))) (let ((.def_407 (not .def_406))) (let ((.def_408 (and .def_407 .def_397))) (let ((.def_409 (not .def_408))) (let ((.def_410 (or .def_409 .def_387))) (let ((.def_411 (or .def_410 .def_365))) (let ((.def_412 (not .def_411))) (let ((.def_413 (and .def_412 .def_316))) (let ((.def_414 (not .def_413))) (let ((.def_415 (and .def_414 .def_219))) (let ((.def_416 (not .def_415))) .def_416))))))))))))))))))))))))))))))))))))))))))))))))))))))))))))))))))))))))))))))))))))))))))))))))))))))))))))))))))))))))))))))))))))))))))))))))))))))))))))))))))))))))))))))))))))))))))))))))))))))))))))))))))))))))))))))))))))))))))))))))))))))))))))))))))))))))))))))))))))))))))))))))))))))))))))))))))))))))))))))))))))))))))))))))))))))))))))))))))))))))))))))))))))))))))))))))))))))))))))))))))))))))))))))))))
(check-sat)
